(set-logic QF_S)
(set-option :strings-exp true)
(set-option :produce-models true)
(declare-fun sigmaStar_0 () String)
(declare-fun x_2 () String)
(declare-fun literal_1 () String)
(assert (= literal_1 "\x61\x74\x74\x65\x6d\x70\x74\x2e\x70\x68\x70\x3f\x69\x64\x3d"))
(assert (or (= x_2 literal_1)))
(assert (str.in.re x_2 (re.++ (re.* re.allchar) (re.++ (str.to.re "\x5c\x3c\x53\x43\x52\x49\x50\x54") (re.* re.allchar)))))
(check-sat)
(get-model)
